# Solution for model practice
# Objective value = 2.6650982043179523e+04
x_0_0 0
w_0_0 0
z_0_0_0 0
z_0_0_1 0
z_0_0_2 0
z_0_0_3 0
x_0_1 0
w_0_1 0
z_0_1_0 0
z_0_1_1 0
z_0_1_2 0
z_0_1_3 0
x_0_2 0
w_0_2 0
z_0_2_0 0
z_0_2_1 0
z_0_2_2 0
z_0_2_3 0
x_0_3 225
w_0_3 0
z_0_3_0 0
z_0_3_1 0
z_0_3_2 2
z_0_3_3 0
x_0_4 0
w_0_4 0
z_0_4_0 0
z_0_4_1 0
z_0_4_2 0
z_0_4_3 0
x_0_5 0
w_0_5 0
z_0_5_0 0
z_0_5_1 0
z_0_5_2 0
z_0_5_3 0
x_0_6 0
w_0_6 0
z_0_6_0 0
z_0_6_1 0
z_0_6_2 0
z_0_6_3 0
x_0_7 0
w_0_7 0
z_0_7_0 0
z_0_7_1 0
z_0_7_2 0
z_0_7_3 0
x_0_8 0
w_0_8 0
z_0_8_0 0
z_0_8_1 0
z_0_8_2 0
z_0_8_3 0
x_0_9 0
w_0_9 0
z_0_9_0 0
z_0_9_1 0
z_0_9_2 0
z_0_9_3 0
x_0_10 0
w_0_10 0
z_0_10_0 0
z_0_10_1 0
z_0_10_2 0
z_0_10_3 0
x_0_11 0
w_0_11 0
z_0_11_0 0
z_0_11_1 0
z_0_11_2 0
z_0_11_3 0
x_0_12 0
w_0_12 0
z_0_12_0 0
z_0_12_1 0
z_0_12_2 0
z_0_12_3 0
x_0_13 0
w_0_13 0
z_0_13_0 0
z_0_13_1 0
z_0_13_2 0
z_0_13_3 0
x_0_14 0
w_0_14 0
z_0_14_0 0
z_0_14_1 0
z_0_14_2 0
z_0_14_3 0
x_0_15 0
w_0_15 0
z_0_15_0 0
z_0_15_1 0
z_0_15_2 0
z_0_15_3 0
x_0_16 0
w_0_16 0
z_0_16_0 0
z_0_16_1 0
z_0_16_2 0
z_0_16_3 0
x_0_17 0
w_0_17 0
z_0_17_0 0
z_0_17_1 0
z_0_17_2 0
z_0_17_3 0
x_0_18 0
w_0_18 0
z_0_18_0 0
z_0_18_1 0
z_0_18_2 0
z_0_18_3 0
x_0_19 0
w_0_19 0
z_0_19_0 0
z_0_19_1 0
z_0_19_2 0
z_0_19_3 0
x_1_0 0
w_1_0 0
z_1_0_0 0
z_1_0_1 0
z_1_0_2 0
z_1_0_3 0
x_1_1 0
w_1_1 0
z_1_1_0 0
z_1_1_1 0
z_1_1_2 0
z_1_1_3 0
x_1_2 0
w_1_2 0
z_1_2_0 0
z_1_2_1 0
z_1_2_2 0
z_1_2_3 0
x_1_3 222
w_1_3 0
z_1_3_0 1
z_1_3_1 0
z_1_3_2 2
z_1_3_3 0
x_1_4 0
w_1_4 0
z_1_4_0 0
z_1_4_1 0
z_1_4_2 0
z_1_4_3 0
x_1_5 0
w_1_5 0
z_1_5_0 0
z_1_5_1 0
z_1_5_2 0
z_1_5_3 0
x_1_6 0
w_1_6 0
z_1_6_0 0
z_1_6_1 0
z_1_6_2 0
z_1_6_3 0
x_1_7 0
w_1_7 0
z_1_7_0 0
z_1_7_1 0
z_1_7_2 0
z_1_7_3 0
x_1_8 0
w_1_8 0
z_1_8_0 0
z_1_8_1 0
z_1_8_2 0
z_1_8_3 0
x_1_9 0
w_1_9 0
z_1_9_0 0
z_1_9_1 0
z_1_9_2 0
z_1_9_3 0
x_1_10 0
w_1_10 0
z_1_10_0 0
z_1_10_1 0
z_1_10_2 0
z_1_10_3 0
x_1_11 0
w_1_11 0
z_1_11_0 0
z_1_11_1 0
z_1_11_2 0
z_1_11_3 0
x_1_12 0
w_1_12 36
z_1_12_0 0
z_1_12_1 0
z_1_12_2 0
z_1_12_3 0
x_1_13 0
w_1_13 0
z_1_13_0 0
z_1_13_1 0
z_1_13_2 0
z_1_13_3 0
x_1_14 0
w_1_14 0
z_1_14_0 0
z_1_14_1 0
z_1_14_2 0
z_1_14_3 0
x_1_15 0
w_1_15 0
z_1_15_0 0
z_1_15_1 0
z_1_15_2 0
z_1_15_3 0
x_1_16 0
w_1_16 0
z_1_16_0 0
z_1_16_1 0
z_1_16_2 0
z_1_16_3 0
x_1_17 0
w_1_17 0
z_1_17_0 0
z_1_17_1 0
z_1_17_2 0
z_1_17_3 0
x_1_18 0
w_1_18 0
z_1_18_0 0
z_1_18_1 0
z_1_18_2 0
z_1_18_3 0
x_1_19 0
w_1_19 0
z_1_19_0 0
z_1_19_1 0
z_1_19_2 0
z_1_19_3 0
x_2_0 0
w_2_0 0
z_2_0_0 0
z_2_0_1 0
z_2_0_2 0
z_2_0_3 0
x_2_1 0
w_2_1 0
z_2_1_0 0
z_2_1_1 0
z_2_1_2 0
z_2_1_3 0
x_2_2 0
w_2_2 0
z_2_2_0 0
z_2_2_1 0
z_2_2_2 0
z_2_2_3 0
x_2_3 211
w_2_3 0
z_2_3_0 3
z_2_3_1 0
z_2_3_2 1
z_2_3_3 0
x_2_4 0
w_2_4 0
z_2_4_0 0
z_2_4_1 0
z_2_4_2 0
z_2_4_3 0
x_2_5 0
w_2_5 0
z_2_5_0 0
z_2_5_1 0
z_2_5_2 0
z_2_5_3 0
x_2_6 0
w_2_6 0
z_2_6_0 0
z_2_6_1 0
z_2_6_2 0
z_2_6_3 0
x_2_7 0
w_2_7 0
z_2_7_0 0
z_2_7_1 0
z_2_7_2 0
z_2_7_3 0
x_2_8 0
w_2_8 0
z_2_8_0 0
z_2_8_1 0
z_2_8_2 0
z_2_8_3 0
x_2_9 0
w_2_9 0
z_2_9_0 0
z_2_9_1 0
z_2_9_2 0
z_2_9_3 0
x_2_10 0
w_2_10 0
z_2_10_0 0
z_2_10_1 0
z_2_10_2 0
z_2_10_3 0
x_2_11 0
w_2_11 0
z_2_11_0 0
z_2_11_1 0
z_2_11_2 0
z_2_11_3 0
x_2_12 0
w_2_12 0
z_2_12_0 0
z_2_12_1 0
z_2_12_2 0
z_2_12_3 0
x_2_13 0
w_2_13 2
z_2_13_0 0
z_2_13_1 0
z_2_13_2 0
z_2_13_3 0
x_2_14 0
w_2_14 0
z_2_14_0 0
z_2_14_1 0
z_2_14_2 0
z_2_14_3 0
x_2_15 0
w_2_15 0
z_2_15_0 0
z_2_15_1 0
z_2_15_2 0
z_2_15_3 0
x_2_16 0
w_2_16 0
z_2_16_0 0
z_2_16_1 0
z_2_16_2 0
z_2_16_3 0
x_2_17 0
w_2_17 0
z_2_17_0 0
z_2_17_1 0
z_2_17_2 0
z_2_17_3 0
x_2_18 0
w_2_18 0
z_2_18_0 0
z_2_18_1 0
z_2_18_2 0
z_2_18_3 0
x_2_19 0
w_2_19 0
z_2_19_0 0
z_2_19_1 0
z_2_19_2 0
z_2_19_3 0
x_3_0 225
w_3_0 0
z_3_0_0 0
z_3_0_1 0
z_3_0_2 2
z_3_0_3 0
x_3_1 222
w_3_1 0
z_3_1_0 1
z_3_1_1 0
z_3_1_2 2
z_3_1_3 0
x_3_2 211
w_3_2 0
z_3_2_0 3
z_3_2_1 0
z_3_2_2 1
z_3_2_3 0
x_3_3 0
w_3_3 0
z_3_3_0 0
z_3_3_1 0
z_3_3_2 0
z_3_3_3 0
x_3_4 60
w_3_4 0
z_3_4_0 0
z_3_4_1 0
z_3_4_2 1
z_3_4_3 0
x_3_5 57
w_3_5 0
z_3_5_0 0
z_3_5_1 0
z_3_5_2 1
z_3_5_3 0
x_3_6 352
w_3_6 0
z_3_6_0 12
z_3_6_1 0
z_3_6_2 0
z_3_6_3 0
x_3_7 99
w_3_7 0
z_3_7_0 0
z_3_7_1 0
z_3_7_2 1
z_3_7_3 0
x_3_8 70
w_3_8 0
z_3_8_0 0
z_3_8_1 0
z_3_8_2 1
z_3_8_3 0
x_3_9 58
w_3_9 0
z_3_9_0 0
z_3_9_1 0
z_3_9_2 1
z_3_9_3 0
x_3_10 0
w_3_10 0
z_3_10_0 0
z_3_10_1 0
z_3_10_2 0
z_3_10_3 0
x_3_11 371
w_3_11 0
z_3_11_0 11
z_3_11_1 0
z_3_11_2 0
z_3_11_3 0
x_3_12 33
w_3_12 0
z_3_12_0 0
z_3_12_1 0
z_3_12_2 1
z_3_12_3 0
x_3_13 53
w_3_13 0
z_3_13_0 0
z_3_13_1 0
z_3_13_2 1
z_3_13_3 0
x_3_14 41
w_3_14 0
z_3_14_0 0
z_3_14_1 0
z_3_14_2 1
z_3_14_3 0
x_3_15 0
w_3_15 0
z_3_15_0 0
z_3_15_1 0
z_3_15_2 0
z_3_15_3 0
x_3_16 0
w_3_16 0
z_3_16_0 0
z_3_16_1 0
z_3_16_2 0
z_3_16_3 0
x_3_17 0
w_3_17 0
z_3_17_0 0
z_3_17_1 0
z_3_17_2 0
z_3_17_3 0
x_3_18 0
w_3_18 0
z_3_18_0 0
z_3_18_1 0
z_3_18_2 0
z_3_18_3 0
x_3_19 0
w_3_19 0
z_3_19_0 0
z_3_19_1 0
z_3_19_2 0
z_3_19_3 0
x_4_0 0
w_4_0 0
z_4_0_0 0
z_4_0_1 0
z_4_0_2 0
z_4_0_3 0
x_4_1 0
w_4_1 0
z_4_1_0 0
z_4_1_1 0
z_4_1_2 0
z_4_1_3 0
x_4_2 0
w_4_2 0
z_4_2_0 0
z_4_2_1 0
z_4_2_2 0
z_4_2_3 0
x_4_3 60
w_4_3 0
z_4_3_0 0
z_4_3_1 0
z_4_3_2 1
z_4_3_3 0
x_4_4 0
w_4_4 0
z_4_4_0 0
z_4_4_1 0
z_4_4_2 0
z_4_4_3 0
x_4_5 0
w_4_5 0
z_4_5_0 0
z_4_5_1 0
z_4_5_2 0
z_4_5_3 0
x_4_6 0
w_4_6 0
z_4_6_0 0
z_4_6_1 0
z_4_6_2 0
z_4_6_3 0
x_4_7 0
w_4_7 0
z_4_7_0 0
z_4_7_1 0
z_4_7_2 0
z_4_7_3 0
x_4_8 0
w_4_8 0
z_4_8_0 0
z_4_8_1 0
z_4_8_2 0
z_4_8_3 0
x_4_9 0
w_4_9 25
z_4_9_0 0
z_4_9_1 0
z_4_9_2 0
z_4_9_3 0
x_4_10 0
w_4_10 0
z_4_10_0 0
z_4_10_1 0
z_4_10_2 0
z_4_10_3 0
x_4_11 0
w_4_11 0
z_4_11_0 0
z_4_11_1 0
z_4_11_2 0
z_4_11_3 0
x_4_12 0
w_4_12 24
z_4_12_0 0
z_4_12_1 0
z_4_12_2 0
z_4_12_3 0
x_4_13 0
w_4_13 3
z_4_13_0 0
z_4_13_1 0
z_4_13_2 0
z_4_13_3 0
x_4_14 0
w_4_14 0
z_4_14_0 0
z_4_14_1 0
z_4_14_2 0
z_4_14_3 0
x_4_15 0
w_4_15 0
z_4_15_0 0
z_4_15_1 0
z_4_15_2 0
z_4_15_3 0
x_4_16 0
w_4_16 0
z_4_16_0 0
z_4_16_1 0
z_4_16_2 0
z_4_16_3 0
x_4_17 0
w_4_17 0
z_4_17_0 0
z_4_17_1 0
z_4_17_2 0
z_4_17_3 0
x_4_18 0
w_4_18 0
z_4_18_0 0
z_4_18_1 0
z_4_18_2 0
z_4_18_3 0
x_4_19 0
w_4_19 0
z_4_19_0 0
z_4_19_1 0
z_4_19_2 0
z_4_19_3 0
x_5_0 0
w_5_0 0
z_5_0_0 0
z_5_0_1 0
z_5_0_2 0
z_5_0_3 0
x_5_1 0
w_5_1 0
z_5_1_0 0
z_5_1_1 0
z_5_1_2 0
z_5_1_3 0
x_5_2 0
w_5_2 0
z_5_2_0 0
z_5_2_1 0
z_5_2_2 0
z_5_2_3 0
x_5_3 57
w_5_3 0
z_5_3_0 0
z_5_3_1 0
z_5_3_2 1
z_5_3_3 0
x_5_4 0
w_5_4 0
z_5_4_0 0
z_5_4_1 0
z_5_4_2 0
z_5_4_3 0
x_5_5 0
w_5_5 0
z_5_5_0 0
z_5_5_1 0
z_5_5_2 0
z_5_5_3 0
x_5_6 0
w_5_6 0
z_5_6_0 0
z_5_6_1 0
z_5_6_2 0
z_5_6_3 0
x_5_7 0
w_5_7 0
z_5_7_0 0
z_5_7_1 0
z_5_7_2 0
z_5_7_3 0
x_5_8 0
w_5_8 0
z_5_8_0 0
z_5_8_1 0
z_5_8_2 0
z_5_8_3 0
x_5_9 0
w_5_9 29
z_5_9_0 0
z_5_9_1 0
z_5_9_2 0
z_5_9_3 0
x_5_10 0
w_5_10 0
z_5_10_0 0
z_5_10_1 0
z_5_10_2 0
z_5_10_3 0
x_5_11 0
w_5_11 0
z_5_11_0 0
z_5_11_1 0
z_5_11_2 0
z_5_11_3 0
x_5_12 0
w_5_12 19
z_5_12_0 0
z_5_12_1 0
z_5_12_2 0
z_5_12_3 0
x_5_13 0
w_5_13 7
z_5_13_0 0
z_5_13_1 0
z_5_13_2 0
z_5_13_3 0
x_5_14 0
w_5_14 0
z_5_14_0 0
z_5_14_1 0
z_5_14_2 0
z_5_14_3 0
x_5_15 0
w_5_15 0
z_5_15_0 0
z_5_15_1 0
z_5_15_2 0
z_5_15_3 0
x_5_16 0
w_5_16 0
z_5_16_0 0
z_5_16_1 0
z_5_16_2 0
z_5_16_3 0
x_5_17 0
w_5_17 0
z_5_17_0 0
z_5_17_1 0
z_5_17_2 0
z_5_17_3 0
x_5_18 0
w_5_18 0
z_5_18_0 0
z_5_18_1 0
z_5_18_2 0
z_5_18_3 0
x_5_19 0
w_5_19 0
z_5_19_0 0
z_5_19_1 0
z_5_19_2 0
z_5_19_3 0
x_6_0 0
w_6_0 0
z_6_0_0 0
z_6_0_1 0
z_6_0_2 0
z_6_0_3 0
x_6_1 0
w_6_1 0
z_6_1_0 0
z_6_1_1 0
z_6_1_2 0
z_6_1_3 0
x_6_2 0
w_6_2 0
z_6_2_0 0
z_6_2_1 0
z_6_2_2 0
z_6_2_3 0
x_6_3 352
w_6_3 0
z_6_3_0 12
z_6_3_1 0
z_6_3_2 0
z_6_3_3 0
x_6_4 0
w_6_4 0
z_6_4_0 0
z_6_4_1 0
z_6_4_2 0
z_6_4_3 0
x_6_5 0
w_6_5 0
z_6_5_0 0
z_6_5_1 0
z_6_5_2 0
z_6_5_3 0
x_6_6 0
w_6_6 0
z_6_6_0 0
z_6_6_1 0
z_6_6_2 0
z_6_6_3 0
x_6_7 0
w_6_7 0
z_6_7_0 0
z_6_7_1 0
z_6_7_2 0
z_6_7_3 0
x_6_8 0
w_6_8 12
z_6_8_0 0
z_6_8_1 0
z_6_8_2 0
z_6_8_3 0
x_6_9 0
w_6_9 0
z_6_9_0 0
z_6_9_1 0
z_6_9_2 0
z_6_9_3 0
x_6_10 0
w_6_10 0
z_6_10_0 0
z_6_10_1 0
z_6_10_2 0
z_6_10_3 0
x_6_11 450
w_6_11 0
z_6_11_0 0
z_6_11_1 0
z_6_11_2 4
z_6_11_3 0
x_6_12 0
w_6_12 0
z_6_12_0 0
z_6_12_1 0
z_6_12_2 0
z_6_12_3 0
x_6_13 0
w_6_13 0
z_6_13_0 0
z_6_13_1 0
z_6_13_2 0
z_6_13_3 0
x_6_14 0
w_6_14 41
z_6_14_0 0
z_6_14_1 0
z_6_14_2 0
z_6_14_3 0
x_6_15 0
w_6_15 0
z_6_15_0 0
z_6_15_1 0
z_6_15_2 0
z_6_15_3 0
x_6_16 0
w_6_16 0
z_6_16_0 0
z_6_16_1 0
z_6_16_2 0
z_6_16_3 0
x_6_17 0
w_6_17 0
z_6_17_0 0
z_6_17_1 0
z_6_17_2 0
z_6_17_3 0
x_6_18 0
w_6_18 0
z_6_18_0 0
z_6_18_1 0
z_6_18_2 0
z_6_18_3 0
x_6_19 0
w_6_19 0
z_6_19_0 0
z_6_19_1 0
z_6_19_2 0
z_6_19_3 0
x_7_0 0
w_7_0 0
z_7_0_0 0
z_7_0_1 0
z_7_0_2 0
z_7_0_3 0
x_7_1 0
w_7_1 0
z_7_1_0 0
z_7_1_1 0
z_7_1_2 0
z_7_1_3 0
x_7_2 0
w_7_2 0
z_7_2_0 0
z_7_2_1 0
z_7_2_2 0
z_7_2_3 0
x_7_3 99
w_7_3 0
z_7_3_0 0
z_7_3_1 0
z_7_3_2 1
z_7_3_3 0
x_7_4 0
w_7_4 0
z_7_4_0 0
z_7_4_1 0
z_7_4_2 0
z_7_4_3 0
x_7_5 0
w_7_5 0
z_7_5_0 0
z_7_5_1 0
z_7_5_2 0
z_7_5_3 0
x_7_6 0
w_7_6 0
z_7_6_0 0
z_7_6_1 0
z_7_6_2 0
z_7_6_3 0
x_7_7 0
w_7_7 0
z_7_7_0 0
z_7_7_1 0
z_7_7_2 0
z_7_7_3 0
x_7_8 0
w_7_8 0
z_7_8_0 0
z_7_8_1 0
z_7_8_2 0
z_7_8_3 0
x_7_9 0
w_7_9 0
z_7_9_0 0
z_7_9_1 0
z_7_9_2 0
z_7_9_3 0
x_7_10 0
w_7_10 0
z_7_10_0 0
z_7_10_1 0
z_7_10_2 0
z_7_10_3 0
x_7_11 0
w_7_11 0
z_7_11_0 0
z_7_11_1 0
z_7_11_2 0
z_7_11_3 0
x_7_12 0
w_7_12 0
z_7_12_0 0
z_7_12_1 0
z_7_12_2 0
z_7_12_3 0
x_7_13 0
w_7_13 0
z_7_13_0 0
z_7_13_1 0
z_7_13_2 0
z_7_13_3 0
x_7_14 0
w_7_14 13
z_7_14_0 0
z_7_14_1 0
z_7_14_2 0
z_7_14_3 0
x_7_15 0
w_7_15 0
z_7_15_0 0
z_7_15_1 0
z_7_15_2 0
z_7_15_3 0
x_7_16 0
w_7_16 0
z_7_16_0 0
z_7_16_1 0
z_7_16_2 0
z_7_16_3 0
x_7_17 0
w_7_17 0
z_7_17_0 0
z_7_17_1 0
z_7_17_2 0
z_7_17_3 0
x_7_18 0
w_7_18 0
z_7_18_0 0
z_7_18_1 0
z_7_18_2 0
z_7_18_3 0
x_7_19 0
w_7_19 0
z_7_19_0 0
z_7_19_1 0
z_7_19_2 0
z_7_19_3 0
x_8_0 0
w_8_0 0
z_8_0_0 0
z_8_0_1 0
z_8_0_2 0
z_8_0_3 0
x_8_1 0
w_8_1 0
z_8_1_0 0
z_8_1_1 0
z_8_1_2 0
z_8_1_3 0
x_8_2 0
w_8_2 0
z_8_2_0 0
z_8_2_1 0
z_8_2_2 0
z_8_2_3 0
x_8_3 70
w_8_3 0
z_8_3_0 0
z_8_3_1 0
z_8_3_2 1
z_8_3_3 0
x_8_4 0
w_8_4 0
z_8_4_0 0
z_8_4_1 0
z_8_4_2 0
z_8_4_3 0
x_8_5 0
w_8_5 0
z_8_5_0 0
z_8_5_1 0
z_8_5_2 0
z_8_5_3 0
x_8_6 0
w_8_6 12
z_8_6_0 0
z_8_6_1 0
z_8_6_2 0
z_8_6_3 0
x_8_7 0
w_8_7 0
z_8_7_0 0
z_8_7_1 0
z_8_7_2 0
z_8_7_3 0
x_8_8 0
w_8_8 0
z_8_8_0 0
z_8_8_1 0
z_8_8_2 0
z_8_8_3 0
x_8_9 0
w_8_9 0
z_8_9_0 0
z_8_9_1 0
z_8_9_2 0
z_8_9_3 0
x_8_10 0
w_8_10 0
z_8_10_0 0
z_8_10_1 0
z_8_10_2 0
z_8_10_3 0
x_8_11 0
w_8_11 0
z_8_11_0 0
z_8_11_1 0
z_8_11_2 0
z_8_11_3 0
x_8_12 0
w_8_12 0
z_8_12_0 0
z_8_12_1 0
z_8_12_2 0
z_8_12_3 0
x_8_13 0
w_8_13 30
z_8_13_0 0
z_8_13_1 0
z_8_13_2 0
z_8_13_3 0
x_8_14 0
w_8_14 0
z_8_14_0 0
z_8_14_1 0
z_8_14_2 0
z_8_14_3 0
x_8_15 0
w_8_15 0
z_8_15_0 0
z_8_15_1 0
z_8_15_2 0
z_8_15_3 0
x_8_16 0
w_8_16 0
z_8_16_0 0
z_8_16_1 0
z_8_16_2 0
z_8_16_3 0
x_8_17 0
w_8_17 0
z_8_17_0 0
z_8_17_1 0
z_8_17_2 0
z_8_17_3 0
x_8_18 0
w_8_18 0
z_8_18_0 0
z_8_18_1 0
z_8_18_2 0
z_8_18_3 0
x_8_19 0
w_8_19 0
z_8_19_0 0
z_8_19_1 0
z_8_19_2 0
z_8_19_3 0
x_9_0 0
w_9_0 0
z_9_0_0 0
z_9_0_1 0
z_9_0_2 0
z_9_0_3 0
x_9_1 0
w_9_1 0
z_9_1_0 0
z_9_1_1 0
z_9_1_2 0
z_9_1_3 0
x_9_2 0
w_9_2 0
z_9_2_0 0
z_9_2_1 0
z_9_2_2 0
z_9_2_3 0
x_9_3 58
w_9_3 0
z_9_3_0 0
z_9_3_1 0
z_9_3_2 1
z_9_3_3 0
x_9_4 0
w_9_4 25
z_9_4_0 0
z_9_4_1 0
z_9_4_2 0
z_9_4_3 0
x_9_5 0
w_9_5 29
z_9_5_0 0
z_9_5_1 0
z_9_5_2 0
z_9_5_3 0
x_9_6 0
w_9_6 0
z_9_6_0 0
z_9_6_1 0
z_9_6_2 0
z_9_6_3 0
x_9_7 0
w_9_7 0
z_9_7_0 0
z_9_7_1 0
z_9_7_2 0
z_9_7_3 0
x_9_8 0
w_9_8 0
z_9_8_0 0
z_9_8_1 0
z_9_8_2 0
z_9_8_3 0
x_9_9 0
w_9_9 0
z_9_9_0 0
z_9_9_1 0
z_9_9_2 0
z_9_9_3 0
x_9_10 0
w_9_10 0
z_9_10_0 0
z_9_10_1 0
z_9_10_2 0
z_9_10_3 0
x_9_11 0
w_9_11 0
z_9_11_0 0
z_9_11_1 0
z_9_11_2 0
z_9_11_3 0
x_9_12 112
w_9_12 0
z_9_12_0 0
z_9_12_1 0
z_9_12_2 1
z_9_12_3 0
x_9_13 0
w_9_13 0
z_9_13_0 0
z_9_13_1 0
z_9_13_2 0
z_9_13_3 0
x_9_14 0
w_9_14 0
z_9_14_0 0
z_9_14_1 0
z_9_14_2 0
z_9_14_3 0
x_9_15 0
w_9_15 0
z_9_15_0 0
z_9_15_1 0
z_9_15_2 0
z_9_15_3 0
x_9_16 0
w_9_16 0
z_9_16_0 0
z_9_16_1 0
z_9_16_2 0
z_9_16_3 0
x_9_17 0
w_9_17 0
z_9_17_0 0
z_9_17_1 0
z_9_17_2 0
z_9_17_3 0
x_9_18 0
w_9_18 0
z_9_18_0 0
z_9_18_1 0
z_9_18_2 0
z_9_18_3 0
x_9_19 0
w_9_19 0
z_9_19_0 0
z_9_19_1 0
z_9_19_2 0
z_9_19_3 0
x_10_0 0
w_10_0 0
z_10_0_0 0
z_10_0_1 0
z_10_0_2 0
z_10_0_3 0
x_10_1 0
w_10_1 0
z_10_1_0 0
z_10_1_1 0
z_10_1_2 0
z_10_1_3 0
x_10_2 0
w_10_2 0
z_10_2_0 0
z_10_2_1 0
z_10_2_2 0
z_10_2_3 0
x_10_3 0
w_10_3 0
z_10_3_0 0
z_10_3_1 0
z_10_3_2 0
z_10_3_3 0
x_10_4 0
w_10_4 0
z_10_4_0 0
z_10_4_1 0
z_10_4_2 0
z_10_4_3 0
x_10_5 0
w_10_5 0
z_10_5_0 0
z_10_5_1 0
z_10_5_2 0
z_10_5_3 0
x_10_6 0
w_10_6 0
z_10_6_0 0
z_10_6_1 0
z_10_6_2 0
z_10_6_3 0
x_10_7 0
w_10_7 0
z_10_7_0 0
z_10_7_1 0
z_10_7_2 0
z_10_7_3 0
x_10_8 0
w_10_8 0
z_10_8_0 0
z_10_8_1 0
z_10_8_2 0
z_10_8_3 0
x_10_9 0
w_10_9 0
z_10_9_0 0
z_10_9_1 0
z_10_9_2 0
z_10_9_3 0
x_10_10 0
w_10_10 0
z_10_10_0 0
z_10_10_1 0
z_10_10_2 0
z_10_10_3 0
x_10_11 0
w_10_11 0
z_10_11_0 0
z_10_11_1 0
z_10_11_2 0
z_10_11_3 0
x_10_12 0
w_10_12 0
z_10_12_0 0
z_10_12_1 0
z_10_12_2 0
z_10_12_3 0
x_10_13 0
w_10_13 0
z_10_13_0 0
z_10_13_1 0
z_10_13_2 0
z_10_13_3 0
x_10_14 0
w_10_14 0
z_10_14_0 0
z_10_14_1 0
z_10_14_2 0
z_10_14_3 0
x_10_15 0
w_10_15 0
z_10_15_0 0
z_10_15_1 0
z_10_15_2 0
z_10_15_3 0
x_10_16 0
w_10_16 0
z_10_16_0 0
z_10_16_1 0
z_10_16_2 0
z_10_16_3 0
x_10_17 0
w_10_17 0
z_10_17_0 0
z_10_17_1 0
z_10_17_2 0
z_10_17_3 0
x_10_18 0
w_10_18 0
z_10_18_0 0
z_10_18_1 0
z_10_18_2 0
z_10_18_3 0
x_10_19 0
w_10_19 0
z_10_19_0 0
z_10_19_1 0
z_10_19_2 0
z_10_19_3 0
x_11_0 0
w_11_0 0
z_11_0_0 0
z_11_0_1 0
z_11_0_2 0
z_11_0_3 0
x_11_1 0
w_11_1 0
z_11_1_0 0
z_11_1_1 0
z_11_1_2 0
z_11_1_3 0
x_11_2 0
w_11_2 0
z_11_2_0 0
z_11_2_1 0
z_11_2_2 0
z_11_2_3 0
x_11_3 371
w_11_3 0
z_11_3_0 11
z_11_3_1 0
z_11_3_2 0
z_11_3_3 0
x_11_4 0
w_11_4 0
z_11_4_0 0
z_11_4_1 0
z_11_4_2 0
z_11_4_3 0
x_11_5 0
w_11_5 0
z_11_5_0 0
z_11_5_1 0
z_11_5_2 0
z_11_5_3 0
x_11_6 450
w_11_6 0
z_11_6_0 0
z_11_6_1 0
z_11_6_2 4
z_11_6_3 0
x_11_7 0
w_11_7 0
z_11_7_0 0
z_11_7_1 0
z_11_7_2 0
z_11_7_3 0
x_11_8 0
w_11_8 0
z_11_8_0 0
z_11_8_1 0
z_11_8_2 0
z_11_8_3 0
x_11_9 0
w_11_9 0
z_11_9_0 0
z_11_9_1 0
z_11_9_2 0
z_11_9_3 0
x_11_10 0
w_11_10 0
z_11_10_0 0
z_11_10_1 0
z_11_10_2 0
z_11_10_3 0
x_11_11 0
w_11_11 0
z_11_11_0 0
z_11_11_1 0
z_11_11_2 0
z_11_11_3 0
x_11_12 0
w_11_12 0
z_11_12_0 0
z_11_12_1 0
z_11_12_2 0
z_11_12_3 0
x_11_13 0
w_11_13 0
z_11_13_0 0
z_11_13_1 0
z_11_13_2 0
z_11_13_3 0
x_11_14 0
w_11_14 0
z_11_14_0 0
z_11_14_1 0
z_11_14_2 0
z_11_14_3 0
x_11_15 0
w_11_15 0
z_11_15_0 0
z_11_15_1 0
z_11_15_2 0
z_11_15_3 0
x_11_16 0
w_11_16 0
z_11_16_0 0
z_11_16_1 0
z_11_16_2 0
z_11_16_3 0
x_11_17 0
w_11_17 0
z_11_17_0 0
z_11_17_1 0
z_11_17_2 0
z_11_17_3 0
x_11_18 0
w_11_18 0
z_11_18_0 0
z_11_18_1 0
z_11_18_2 0
z_11_18_3 0
x_11_19 0
w_11_19 0
z_11_19_0 0
z_11_19_1 0
z_11_19_2 0
z_11_19_3 0
x_12_0 0
w_12_0 0
z_12_0_0 0
z_12_0_1 0
z_12_0_2 0
z_12_0_3 0
x_12_1 0
w_12_1 36
z_12_1_0 0
z_12_1_1 0
z_12_1_2 0
z_12_1_3 0
x_12_2 0
w_12_2 0
z_12_2_0 0
z_12_2_1 0
z_12_2_2 0
z_12_2_3 0
x_12_3 33
w_12_3 0
z_12_3_0 0
z_12_3_1 0
z_12_3_2 1
z_12_3_3 0
x_12_4 0
w_12_4 24
z_12_4_0 0
z_12_4_1 0
z_12_4_2 0
z_12_4_3 0
x_12_5 0
w_12_5 19
z_12_5_0 0
z_12_5_1 0
z_12_5_2 0
z_12_5_3 0
x_12_6 0
w_12_6 0
z_12_6_0 0
z_12_6_1 0
z_12_6_2 0
z_12_6_3 0
x_12_7 0
w_12_7 0
z_12_7_0 0
z_12_7_1 0
z_12_7_2 0
z_12_7_3 0
x_12_8 0
w_12_8 0
z_12_8_0 0
z_12_8_1 0
z_12_8_2 0
z_12_8_3 0
x_12_9 112
w_12_9 0
z_12_9_0 0
z_12_9_1 0
z_12_9_2 1
z_12_9_3 0
x_12_10 0
w_12_10 0
z_12_10_0 0
z_12_10_1 0
z_12_10_2 0
z_12_10_3 0
x_12_11 0
w_12_11 0
z_12_11_0 0
z_12_11_1 0
z_12_11_2 0
z_12_11_3 0
x_12_12 0
w_12_12 0
z_12_12_0 0
z_12_12_1 0
z_12_12_2 0
z_12_12_3 0
x_12_13 0
w_12_13 0
z_12_13_0 0
z_12_13_1 0
z_12_13_2 0
z_12_13_3 0
x_12_14 0
w_12_14 0
z_12_14_0 0
z_12_14_1 0
z_12_14_2 0
z_12_14_3 0
x_12_15 0
w_12_15 0
z_12_15_0 0
z_12_15_1 0
z_12_15_2 0
z_12_15_3 0
x_12_16 0
w_12_16 0
z_12_16_0 0
z_12_16_1 0
z_12_16_2 0
z_12_16_3 0
x_12_17 0
w_12_17 0
z_12_17_0 0
z_12_17_1 0
z_12_17_2 0
z_12_17_3 0
x_12_18 0
w_12_18 0
z_12_18_0 0
z_12_18_1 0
z_12_18_2 0
z_12_18_3 0
x_12_19 0
w_12_19 0
z_12_19_0 0
z_12_19_1 0
z_12_19_2 0
z_12_19_3 0
x_13_0 0
w_13_0 0
z_13_0_0 0
z_13_0_1 0
z_13_0_2 0
z_13_0_3 0
x_13_1 0
w_13_1 0
z_13_1_0 0
z_13_1_1 0
z_13_1_2 0
z_13_1_3 0
x_13_2 0
w_13_2 2
z_13_2_0 0
z_13_2_1 0
z_13_2_2 0
z_13_2_3 0
x_13_3 53
w_13_3 0
z_13_3_0 0
z_13_3_1 0
z_13_3_2 1
z_13_3_3 0
x_13_4 0
w_13_4 3
z_13_4_0 0
z_13_4_1 0
z_13_4_2 0
z_13_4_3 0
x_13_5 0
w_13_5 7
z_13_5_0 0
z_13_5_1 0
z_13_5_2 0
z_13_5_3 0
x_13_6 0
w_13_6 0
z_13_6_0 0
z_13_6_1 0
z_13_6_2 0
z_13_6_3 0
x_13_7 0
w_13_7 0
z_13_7_0 0
z_13_7_1 0
z_13_7_2 0
z_13_7_3 0
x_13_8 0
w_13_8 30
z_13_8_0 0
z_13_8_1 0
z_13_8_2 0
z_13_8_3 0
x_13_9 0
w_13_9 0
z_13_9_0 0
z_13_9_1 0
z_13_9_2 0
z_13_9_3 0
x_13_10 0
w_13_10 0
z_13_10_0 0
z_13_10_1 0
z_13_10_2 0
z_13_10_3 0
x_13_11 0
w_13_11 0
z_13_11_0 0
z_13_11_1 0
z_13_11_2 0
z_13_11_3 0
x_13_12 0
w_13_12 0
z_13_12_0 0
z_13_12_1 0
z_13_12_2 0
z_13_12_3 0
x_13_13 0
w_13_13 0
z_13_13_0 0
z_13_13_1 0
z_13_13_2 0
z_13_13_3 0
x_13_14 0
w_13_14 17
z_13_14_0 0
z_13_14_1 0
z_13_14_2 0
z_13_14_3 0
x_13_15 0
w_13_15 0
z_13_15_0 0
z_13_15_1 0
z_13_15_2 0
z_13_15_3 0
x_13_16 0
w_13_16 0
z_13_16_0 0
z_13_16_1 0
z_13_16_2 0
z_13_16_3 0
x_13_17 0
w_13_17 0
z_13_17_0 0
z_13_17_1 0
z_13_17_2 0
z_13_17_3 0
x_13_18 0
w_13_18 0
z_13_18_0 0
z_13_18_1 0
z_13_18_2 0
z_13_18_3 0
x_13_19 0
w_13_19 0
z_13_19_0 0
z_13_19_1 0
z_13_19_2 0
z_13_19_3 0
x_14_0 0
w_14_0 0
z_14_0_0 0
z_14_0_1 0
z_14_0_2 0
z_14_0_3 0
x_14_1 0
w_14_1 0
z_14_1_0 0
z_14_1_1 0
z_14_1_2 0
z_14_1_3 0
x_14_2 0
w_14_2 0
z_14_2_0 0
z_14_2_1 0
z_14_2_2 0
z_14_2_3 0
x_14_3 41
w_14_3 0
z_14_3_0 0
z_14_3_1 0
z_14_3_2 1
z_14_3_3 0
x_14_4 0
w_14_4 0
z_14_4_0 0
z_14_4_1 0
z_14_4_2 0
z_14_4_3 0
x_14_5 0
w_14_5 0
z_14_5_0 0
z_14_5_1 0
z_14_5_2 0
z_14_5_3 0
x_14_6 0
w_14_6 41
z_14_6_0 0
z_14_6_1 0
z_14_6_2 0
z_14_6_3 0
x_14_7 0
w_14_7 13
z_14_7_0 0
z_14_7_1 0
z_14_7_2 0
z_14_7_3 0
x_14_8 0
w_14_8 0
z_14_8_0 0
z_14_8_1 0
z_14_8_2 0
z_14_8_3 0
x_14_9 0
w_14_9 0
z_14_9_0 0
z_14_9_1 0
z_14_9_2 0
z_14_9_3 0
x_14_10 0
w_14_10 0
z_14_10_0 0
z_14_10_1 0
z_14_10_2 0
z_14_10_3 0
x_14_11 0
w_14_11 0
z_14_11_0 0
z_14_11_1 0
z_14_11_2 0
z_14_11_3 0
x_14_12 0
w_14_12 0
z_14_12_0 0
z_14_12_1 0
z_14_12_2 0
z_14_12_3 0
x_14_13 0
w_14_13 17
z_14_13_0 0
z_14_13_1 0
z_14_13_2 0
z_14_13_3 0
x_14_14 0
w_14_14 0
z_14_14_0 0
z_14_14_1 0
z_14_14_2 0
z_14_14_3 0
x_14_15 0
w_14_15 0
z_14_15_0 0
z_14_15_1 0
z_14_15_2 0
z_14_15_3 0
x_14_16 0
w_14_16 0
z_14_16_0 0
z_14_16_1 0
z_14_16_2 0
z_14_16_3 0
x_14_17 0
w_14_17 0
z_14_17_0 0
z_14_17_1 0
z_14_17_2 0
z_14_17_3 0
x_14_18 0
w_14_18 0
z_14_18_0 0
z_14_18_1 0
z_14_18_2 0
z_14_18_3 0
x_14_19 0
w_14_19 0
z_14_19_0 0
z_14_19_1 0
z_14_19_2 0
z_14_19_3 0
x_15_0 0
w_15_0 0
z_15_0_0 0
z_15_0_1 0
z_15_0_2 0
z_15_0_3 0
x_15_1 0
w_15_1 0
z_15_1_0 0
z_15_1_1 0
z_15_1_2 0
z_15_1_3 0
x_15_2 0
w_15_2 0
z_15_2_0 0
z_15_2_1 0
z_15_2_2 0
z_15_2_3 0
x_15_3 0
w_15_3 0
z_15_3_0 0
z_15_3_1 0
z_15_3_2 0
z_15_3_3 0
x_15_4 0
w_15_4 0
z_15_4_0 0
z_15_4_1 0
z_15_4_2 0
z_15_4_3 0
x_15_5 0
w_15_5 0
z_15_5_0 0
z_15_5_1 0
z_15_5_2 0
z_15_5_3 0
x_15_6 0
w_15_6 0
z_15_6_0 0
z_15_6_1 0
z_15_6_2 0
z_15_6_3 0
x_15_7 0
w_15_7 0
z_15_7_0 0
z_15_7_1 0
z_15_7_2 0
z_15_7_3 0
x_15_8 0
w_15_8 0
z_15_8_0 0
z_15_8_1 0
z_15_8_2 0
z_15_8_3 0
x_15_9 0
w_15_9 0
z_15_9_0 0
z_15_9_1 0
z_15_9_2 0
z_15_9_3 0
x_15_10 0
w_15_10 0
z_15_10_0 0
z_15_10_1 0
z_15_10_2 0
z_15_10_3 0
x_15_11 0
w_15_11 0
z_15_11_0 0
z_15_11_1 0
z_15_11_2 0
z_15_11_3 0
x_15_12 0
w_15_12 0
z_15_12_0 0
z_15_12_1 0
z_15_12_2 0
z_15_12_3 0
x_15_13 0
w_15_13 0
z_15_13_0 0
z_15_13_1 0
z_15_13_2 0
z_15_13_3 0
x_15_14 0
w_15_14 0
z_15_14_0 0
z_15_14_1 0
z_15_14_2 0
z_15_14_3 0
x_15_15 0
w_15_15 0
z_15_15_0 0
z_15_15_1 0
z_15_15_2 0
z_15_15_3 0
x_15_16 0
w_15_16 0
z_15_16_0 0
z_15_16_1 0
z_15_16_2 0
z_15_16_3 0
x_15_17 0
w_15_17 0
z_15_17_0 0
z_15_17_1 0
z_15_17_2 0
z_15_17_3 0
x_15_18 0
w_15_18 0
z_15_18_0 0
z_15_18_1 0
z_15_18_2 0
z_15_18_3 0
x_15_19 0
w_15_19 0
z_15_19_0 0
z_15_19_1 0
z_15_19_2 0
z_15_19_3 0
x_16_0 0
w_16_0 0
z_16_0_0 0
z_16_0_1 0
z_16_0_2 0
z_16_0_3 0
x_16_1 0
w_16_1 0
z_16_1_0 0
z_16_1_1 0
z_16_1_2 0
z_16_1_3 0
x_16_2 0
w_16_2 0
z_16_2_0 0
z_16_2_1 0
z_16_2_2 0
z_16_2_3 0
x_16_3 0
w_16_3 0
z_16_3_0 0
z_16_3_1 0
z_16_3_2 0
z_16_3_3 0
x_16_4 0
w_16_4 0
z_16_4_0 0
z_16_4_1 0
z_16_4_2 0
z_16_4_3 0
x_16_5 0
w_16_5 0
z_16_5_0 0
z_16_5_1 0
z_16_5_2 0
z_16_5_3 0
x_16_6 0
w_16_6 0
z_16_6_0 0
z_16_6_1 0
z_16_6_2 0
z_16_6_3 0
x_16_7 0
w_16_7 0
z_16_7_0 0
z_16_7_1 0
z_16_7_2 0
z_16_7_3 0
x_16_8 0
w_16_8 0
z_16_8_0 0
z_16_8_1 0
z_16_8_2 0
z_16_8_3 0
x_16_9 0
w_16_9 0
z_16_9_0 0
z_16_9_1 0
z_16_9_2 0
z_16_9_3 0
x_16_10 0
w_16_10 0
z_16_10_0 0
z_16_10_1 0
z_16_10_2 0
z_16_10_3 0
x_16_11 0
w_16_11 0
z_16_11_0 0
z_16_11_1 0
z_16_11_2 0
z_16_11_3 0
x_16_12 0
w_16_12 0
z_16_12_0 0
z_16_12_1 0
z_16_12_2 0
z_16_12_3 0
x_16_13 0
w_16_13 0
z_16_13_0 0
z_16_13_1 0
z_16_13_2 0
z_16_13_3 0
x_16_14 0
w_16_14 0
z_16_14_0 0
z_16_14_1 0
z_16_14_2 0
z_16_14_3 0
x_16_15 0
w_16_15 0
z_16_15_0 0
z_16_15_1 0
z_16_15_2 0
z_16_15_3 0
x_16_16 0
w_16_16 0
z_16_16_0 0
z_16_16_1 0
z_16_16_2 0
z_16_16_3 0
x_16_17 0
w_16_17 0
z_16_17_0 0
z_16_17_1 0
z_16_17_2 0
z_16_17_3 0
x_16_18 0
w_16_18 0
z_16_18_0 0
z_16_18_1 0
z_16_18_2 0
z_16_18_3 0
x_16_19 0
w_16_19 0
z_16_19_0 0
z_16_19_1 0
z_16_19_2 0
z_16_19_3 0
x_17_0 0
w_17_0 0
z_17_0_0 0
z_17_0_1 0
z_17_0_2 0
z_17_0_3 0
x_17_1 0
w_17_1 0
z_17_1_0 0
z_17_1_1 0
z_17_1_2 0
z_17_1_3 0
x_17_2 0
w_17_2 0
z_17_2_0 0
z_17_2_1 0
z_17_2_2 0
z_17_2_3 0
x_17_3 0
w_17_3 0
z_17_3_0 0
z_17_3_1 0
z_17_3_2 0
z_17_3_3 0
x_17_4 0
w_17_4 0
z_17_4_0 0
z_17_4_1 0
z_17_4_2 0
z_17_4_3 0
x_17_5 0
w_17_5 0
z_17_5_0 0
z_17_5_1 0
z_17_5_2 0
z_17_5_3 0
x_17_6 0
w_17_6 0
z_17_6_0 0
z_17_6_1 0
z_17_6_2 0
z_17_6_3 0
x_17_7 0
w_17_7 0
z_17_7_0 0
z_17_7_1 0
z_17_7_2 0
z_17_7_3 0
x_17_8 0
w_17_8 0
z_17_8_0 0
z_17_8_1 0
z_17_8_2 0
z_17_8_3 0
x_17_9 0
w_17_9 0
z_17_9_0 0
z_17_9_1 0
z_17_9_2 0
z_17_9_3 0
x_17_10 0
w_17_10 0
z_17_10_0 0
z_17_10_1 0
z_17_10_2 0
z_17_10_3 0
x_17_11 0
w_17_11 0
z_17_11_0 0
z_17_11_1 0
z_17_11_2 0
z_17_11_3 0
x_17_12 0
w_17_12 0
z_17_12_0 0
z_17_12_1 0
z_17_12_2 0
z_17_12_3 0
x_17_13 0
w_17_13 0
z_17_13_0 0
z_17_13_1 0
z_17_13_2 0
z_17_13_3 0
x_17_14 0
w_17_14 0
z_17_14_0 0
z_17_14_1 0
z_17_14_2 0
z_17_14_3 0
x_17_15 0
w_17_15 0
z_17_15_0 0
z_17_15_1 0
z_17_15_2 0
z_17_15_3 0
x_17_16 0
w_17_16 0
z_17_16_0 0
z_17_16_1 0
z_17_16_2 0
z_17_16_3 0
x_17_17 0
w_17_17 0
z_17_17_0 0
z_17_17_1 0
z_17_17_2 0
z_17_17_3 0
x_17_18 0
w_17_18 0
z_17_18_0 0
z_17_18_1 0
z_17_18_2 0
z_17_18_3 0
x_17_19 0
w_17_19 0
z_17_19_0 0
z_17_19_1 0
z_17_19_2 0
z_17_19_3 0
x_18_0 0
w_18_0 0
z_18_0_0 0
z_18_0_1 0
z_18_0_2 0
z_18_0_3 0
x_18_1 0
w_18_1 0
z_18_1_0 0
z_18_1_1 0
z_18_1_2 0
z_18_1_3 0
x_18_2 0
w_18_2 0
z_18_2_0 0
z_18_2_1 0
z_18_2_2 0
z_18_2_3 0
x_18_3 0
w_18_3 0
z_18_3_0 0
z_18_3_1 0
z_18_3_2 0
z_18_3_3 0
x_18_4 0
w_18_4 0
z_18_4_0 0
z_18_4_1 0
z_18_4_2 0
z_18_4_3 0
x_18_5 0
w_18_5 0
z_18_5_0 0
z_18_5_1 0
z_18_5_2 0
z_18_5_3 0
x_18_6 0
w_18_6 0
z_18_6_0 0
z_18_6_1 0
z_18_6_2 0
z_18_6_3 0
x_18_7 0
w_18_7 0
z_18_7_0 0
z_18_7_1 0
z_18_7_2 0
z_18_7_3 0
x_18_8 0
w_18_8 0
z_18_8_0 0
z_18_8_1 0
z_18_8_2 0
z_18_8_3 0
x_18_9 0
w_18_9 0
z_18_9_0 0
z_18_9_1 0
z_18_9_2 0
z_18_9_3 0
x_18_10 0
w_18_10 0
z_18_10_0 0
z_18_10_1 0
z_18_10_2 0
z_18_10_3 0
x_18_11 0
w_18_11 0
z_18_11_0 0
z_18_11_1 0
z_18_11_2 0
z_18_11_3 0
x_18_12 0
w_18_12 0
z_18_12_0 0
z_18_12_1 0
z_18_12_2 0
z_18_12_3 0
x_18_13 0
w_18_13 0
z_18_13_0 0
z_18_13_1 0
z_18_13_2 0
z_18_13_3 0
x_18_14 0
w_18_14 0
z_18_14_0 0
z_18_14_1 0
z_18_14_2 0
z_18_14_3 0
x_18_15 0
w_18_15 0
z_18_15_0 0
z_18_15_1 0
z_18_15_2 0
z_18_15_3 0
x_18_16 0
w_18_16 0
z_18_16_0 0
z_18_16_1 0
z_18_16_2 0
z_18_16_3 0
x_18_17 0
w_18_17 0
z_18_17_0 0
z_18_17_1 0
z_18_17_2 0
z_18_17_3 0
x_18_18 0
w_18_18 0
z_18_18_0 0
z_18_18_1 0
z_18_18_2 0
z_18_18_3 0
x_18_19 0
w_18_19 0
z_18_19_0 0
z_18_19_1 0
z_18_19_2 0
z_18_19_3 0
x_19_0 0
w_19_0 0
z_19_0_0 0
z_19_0_1 0
z_19_0_2 0
z_19_0_3 0
x_19_1 0
w_19_1 0
z_19_1_0 0
z_19_1_1 0
z_19_1_2 0
z_19_1_3 0
x_19_2 0
w_19_2 0
z_19_2_0 0
z_19_2_1 0
z_19_2_2 0
z_19_2_3 0
x_19_3 0
w_19_3 0
z_19_3_0 0
z_19_3_1 0
z_19_3_2 0
z_19_3_3 0
x_19_4 0
w_19_4 0
z_19_4_0 0
z_19_4_1 0
z_19_4_2 0
z_19_4_3 0
x_19_5 0
w_19_5 0
z_19_5_0 0
z_19_5_1 0
z_19_5_2 0
z_19_5_3 0
x_19_6 0
w_19_6 0
z_19_6_0 0
z_19_6_1 0
z_19_6_2 0
z_19_6_3 0
x_19_7 0
w_19_7 0
z_19_7_0 0
z_19_7_1 0
z_19_7_2 0
z_19_7_3 0
x_19_8 0
w_19_8 0
z_19_8_0 0
z_19_8_1 0
z_19_8_2 0
z_19_8_3 0
x_19_9 0
w_19_9 0
z_19_9_0 0
z_19_9_1 0
z_19_9_2 0
z_19_9_3 0
x_19_10 0
w_19_10 0
z_19_10_0 0
z_19_10_1 0
z_19_10_2 0
z_19_10_3 0
x_19_11 0
w_19_11 0
z_19_11_0 0
z_19_11_1 0
z_19_11_2 0
z_19_11_3 0
x_19_12 0
w_19_12 0
z_19_12_0 0
z_19_12_1 0
z_19_12_2 0
z_19_12_3 0
x_19_13 0
w_19_13 0
z_19_13_0 0
z_19_13_1 0
z_19_13_2 0
z_19_13_3 0
x_19_14 0
w_19_14 0
z_19_14_0 0
z_19_14_1 0
z_19_14_2 0
z_19_14_3 0
x_19_15 0
w_19_15 0
z_19_15_0 0
z_19_15_1 0
z_19_15_2 0
z_19_15_3 0
x_19_16 0
w_19_16 0
z_19_16_0 0
z_19_16_1 0
z_19_16_2 0
z_19_16_3 0
x_19_17 0
w_19_17 0
z_19_17_0 0
z_19_17_1 0
z_19_17_2 0
z_19_17_3 0
x_19_18 0
w_19_18 0
z_19_18_0 0
z_19_18_1 0
z_19_18_2 0
z_19_18_3 0
x_19_19 0
w_19_19 0
z_19_19_0 0
z_19_19_1 0
z_19_19_2 0
z_19_19_3 0
AC_1 1
AC_2 0
AC_3 1
AC_4 0
